69 81
17 16
1 45
26 45 2
46 61 2
49 25 3
48 24 4
48 67 4
23 5
23 5
6 38 59
7 39
58 36 8
9 56 36
9 18
10 33 56
10 41
33 11 53
19 11
12 32 53
42 12
13 32 29
20 13
51 29 14
22 14
51 28 15
27 44 28 15
81 16
62 61
62 76 63
71 80
73 72
76 75
76 77
21 20
22 30
24 23
66 25 24
25 26
31 26 64
27 71 31
71 28
30 29
31 30
31 78 35
75 34 32
33 34
34 35
70 37 35
37 36
38 37 68
38 39
40 39
42 54 43
72 43
44 74
52 45
46 47
48 49
49 61 50 65
52 50
51 52 75
79 52 55
54 53
72 54 55
57 55
57 56
57 58 69
59 58
60 59
